SimulationType                MonteCarlo
NumberOfCycles                50000
NumberOfInitializationCycles  10000
PrintEvery                    2000

ContinueAfterCrash            no
WriteBinaryRestartFileEvery   2000


Forcefield                    UFF
RemoveAtomNumberCodeFromLabel yes

Framework 0
FrameworkName Cu-BTC
UnitCells 1 1 1
ExternalTemperature 298.0
ExternalPressure XXX

Component 0 MoleculeName             methane
            MoleculeDefinition       TraPPE
            TranslationProbability   0.5
            ReinsertionProbability   0.5
	    RotationProbability      0.5
            SwapProbability          1.0
            CreateNumberOfMolecules  0
